language Essence 1.3

letting class be function(1 --> 1, 2 --> 1, 3 --> 1, 4 --> 1, 5 --> 1, 6 --> 1, 7 --> 1, 8 --> 1)
letting deck_length be 12
letting deck_width be 22
letting length be function(1 --> 5, 2 --> 4, 3 --> 12, 4 --> 2, 5 --> 1, 6 --> 1, 7 --> 2, 8 --> 1)
letting n_classes be 1
letting n_containers be 8
letting separation be function()
letting width be function(1 --> 5, 2 --> 3, 3 --> 3, 4 --> 2, 5 --> 3, 6 --> 1, 7 --> 1, 8 --> 1)
